experiments/sat_smt/run/sat-l/results/david.res
solved=true
solvingTime=3440.322021484375
nActions=23