experiments/sat_smt/run/sat-l/results/david.out
Timesteps: 1
s UNSATISFIABLE
real 0.09
user 0.01
sys 0.00
Timesteps: 2
s UNSATISFIABLE
real 0.21
user 0.02
sys 0.00
Timesteps: 3
s UNSATISFIABLE
real 0.20
user 0.05
sys 0.00
Timesteps: 4
s UNSATISFIABLE
real 0.16
user 0.09
sys 0.00
Timesteps: 5
s UNSATISFIABLE
real 0.36
user 0.26
sys 0.00
Timesteps: 6
s UNSATISFIABLE
real 0.95
user 0.85
sys 0.01
Timesteps: 7
s UNSATISFIABLE
real 2.08
user 1.94
sys 0.01
Timesteps: 8
s UNSATISFIABLE
real 4.40
user 4.23
sys 0.01
Timesteps: 9
s UNSATISFIABLE
real 7.42
user 7.21
sys 0.02
Timesteps: 10
s UNSATISFIABLE
real 10.42
user 10.19
sys 0.02
Timesteps: 11
s UNSATISFIABLE
real 10.84
user 10.58
sys 0.03
Timesteps: 12
s UNSATISFIABLE
real 12.41
user 12.09
sys 0.04
Timesteps: 13
s UNSATISFIABLE
real 14.92
user 14.60
sys 0.05
Timesteps: 14
s UNSATISFIABLE
real 17.34
user 16.98
sys 0.05
Timesteps: 15
s UNSATISFIABLE
real 22.15
user 21.75
sys 0.06
Timesteps: 16
s UNSATISFIABLE
real 30.35
user 29.89
sys 0.07
Timesteps: 17
s UNSATISFIABLE
real 52.41
user 51.84
sys 0.09
Timesteps: 18
s UNSATISFIABLE
real 101.94
user 101.10
sys 0.14
Timesteps: 19
s UNSATISFIABLE
real 192.71
user 191.36
sys 0.23
Timesteps: 20
s UNSATISFIABLE
real 225.47
user 223.97
sys 0.28
Timesteps: 21
s UNSATISFIABLE
real 364.25
user 362.18
sys 0.36
Timesteps: 22
s UNSATISFIABLE
real 921.30
user 916.78
sys 0.72
Timesteps: 23
s SATISFIABLE
real 1460.92
user 1454.12
sys 1.17
